c A SAT instance generated from a 3-CNF formula that had 12 clauses and 8 variables
p cnf 8 12
-1 -3 6 0
-1 -4 6 0
2 -8 -5 0
4 -8 -3 0
7 -3 1 0
7 -6 3 0
4 -8 -6 0
3 -7 -8 0
6 2 -1 0
4 3 -1 0
-1 7 2 0
2 -1 6 0
